data_ICSD-94.b3lyp.6-311G**.dma4.-192.3024.2.3015
_audit_creation_method 'generated by cspy2.0'
_cell_length_a 7.9095
_cell_length_b 7.7133
_cell_length_c 9.1861
_cell_angle_alpha 90.0
_cell_angle_beta 90.0
_cell_angle_gamma 90.0
loop_
_symmetry_equiv_pos_site_id
_symmetry_equiv_pos_as_xyz
1 +x,+y,+z
loop_
_atom_site_label
_atom_site_type_symbol
_atom_site_fract_x
_atom_site_fract_y
_atom_site_fract_z
_atom_site_occupancy
S1 S       0.166900810000       0.093570260000       0.171223010000       1.000000000000
S2 S       0.838473860000       0.931878030000       0.843324470000       1.000000000000
S3 S       0.848884520000       0.593570260000       0.335359860000       1.000000000000
S4 S       0.177311480000       0.431878030000       0.663258400000       1.000000000000
S5 S       0.348884520000       0.920190970000       0.671223010000       1.000000000000
S6 S       0.677311480000       0.081883180000       0.343324480000       1.000000000000
S7 S       0.338473860000       0.581883190000       0.163258390000       1.000000000000
S8 S       0.666900800000       0.420190950000       0.835359860000       1.000000000000
N1 N       0.038656870000       0.244220080000       0.076273540000       1.000000000000
N2 N       0.956034380000       0.762975720000       0.926089480000       1.000000000000
N3 N       0.977128450000       0.744220080000       0.430309330000       1.000000000000
N4 N       0.059750940000       0.262975730000       0.580493390000       1.000000000000
N5 N       0.477128440000       0.769541140000       0.576273540000       1.000000000000
N6 N       0.559750940000       0.250785500000       0.426089480000       1.000000000000
N7 N       0.456034390000       0.750785500000       0.080493390000       1.000000000000
N8 N       0.538656880000       0.269541130000       0.930309330000       1.000000000000
O1 O       0.056447000000      -0.054096460000       0.180986170000       1.000000000000
O2 O       0.308825000000       0.072070250000       0.075351490000       1.000000000000
O3 O       0.200819690000       0.182171220000       0.305477640000       1.000000000000
O4 O       0.965398310000       1.063712300000       0.825529800000       1.000000000000
O5 O       0.711699040000       0.969749760000       0.950673770000       1.000000000000
O6 O       0.778894290000       0.852004660000       0.711862460000       1.000000000000
O7 O       0.959338320000       0.445903550000       0.325596700000       1.000000000000
O8 O       0.706960330000       0.572070250000       0.431231390000       1.000000000000
O9 O       0.814965620000       0.682171230000       0.201105230000       1.000000000000
O10 O       0.050387030000       0.563712310000       0.681053070000       1.000000000000
O11 O       0.304086300000       0.469749760000       0.555909100000       1.000000000000
O12 O       0.236891020000       0.352004660000       0.794720410000       1.000000000000
O13 O       0.459338320000       1.067857680000       0.680986170000       1.000000000000
O14 O       0.206960330000       0.941690970000       0.575351480000       1.000000000000
O15 O       0.314965640000       0.831590000000       0.805477640000       1.000000000000
O16 O       0.550387020000      -0.049951090000       0.325529810000       1.000000000000
O17 O       0.804086300000       0.044011460000       0.450673770000       1.000000000000
O18 O       0.736891030000       0.161756550000       0.211862460000       1.000000000000
O19 O       0.465398300000       0.450048910000       0.181053070000       1.000000000000
O20 O       0.211699030000       0.544011460000       0.055909090000       1.000000000000
O21 O       0.278894300000       0.661756550000       0.294720410000       1.000000000000
O22 O       0.556446980000       0.567857660000       0.825596700000       1.000000000000
O23 O       0.808825000000       0.441690980000       0.931231390000       1.000000000000
O24 O       0.700819710000       0.331589980000       0.701105230000       1.000000000000
H1 H       0.094039430000       0.363557460000       0.057927820000       1.000000000000
H2 H      -0.078022410000       0.249696300000       0.125654630000       1.000000000000
H3 H       0.010065430000       0.195755400000      -0.024248530000       1.000000000000
H4 H       0.888037740000       0.651633150000       0.948067190000       1.000000000000
H5 H       1.065053850000       0.743185150000       0.867223680000       1.000000000000
H6 H       1.001496480000       0.804635070000       1.024124610000       1.000000000000
H7 H       0.921745910000       0.863557460000       0.448655050000       1.000000000000
H8 H       1.093807740000       0.749696290000       0.380928240000       1.000000000000
H9 H       1.005719910000       0.695755390000       0.530831390000       1.000000000000
H10 H       0.127747570000       0.151633150000       0.558515680000       1.000000000000
H11 H      -0.049268540000       0.243185170000       0.639359170000       1.000000000000
H12 H       0.014288840000       0.304635080000       0.482458250000       1.000000000000
H13 H       0.421745900000       0.650203760000       0.557927830000       1.000000000000
H14 H       0.593807740000       0.764064920000       0.625654630000       1.000000000000
H15 H       0.505719900000       0.818005820000       0.475751480000       1.000000000000
H16 H       0.627747570000       0.362128060000       0.448067180000       1.000000000000
H17 H       0.450731460000       0.270576050000       0.367223690000       1.000000000000
H18 H       0.514288840000       0.209126150000       0.524124600000       1.000000000000
H19 H       0.388037750000       0.862128070000       0.058515700000       1.000000000000
H20 H       0.565053860000       0.770576050000       0.139359180000       1.000000000000
H21 H       0.501496480000       0.709126140000      -0.017541740000       1.000000000000
H22 H       0.594039440000       0.150203750000       0.948655050000       1.000000000000
H23 H       0.421977600000       0.264064900000       0.880928240000       1.000000000000
H24 H       0.510065430000       0.318005810000       1.030831390000       1.000000000000
#END