data_ICSD-200455.b3lyp.6-311G**.dma4.-101.2184.2.0595
_audit_creation_method 'generated by cspy2.0'
_cell_length_a 10.4237
_cell_length_b 12.6413
_cell_length_c 25.1154
_cell_angle_alpha 89.7906
_cell_angle_beta 90.0
_cell_angle_gamma 90.0
loop_
_symmetry_equiv_pos_site_id
_symmetry_equiv_pos_as_xyz
1 +x,+y,+z
loop_
_atom_site_label
_atom_site_type_symbol
_atom_site_fract_x
_atom_site_fract_y
_atom_site_fract_z
_atom_site_occupancy
S1 S       0.858460910000       0.953105000000       0.952611640000       1.000000000000
S2 S       0.890392140000       0.793394590000       0.953684540000       1.000000000000
S3 S       0.791166090000       1.036651380000       1.073952980000       1.000000000000
S4 S       0.959296150000       0.714759360000       1.075997330000       1.000000000000
S5 S       0.710822750000       0.985844830000       1.004046710000       1.000000000000
S6 S       1.038710380000       0.762730320000       1.005223280000       1.000000000000
S7 S       0.787599230000       0.912994670000       1.127010160000       1.000000000000
S8 S       0.963552330000       0.840519840000       1.127313350000       1.000000000000
S9 S       0.139454260000       0.043709160000       0.051900710000       1.000000000000
S10 S       0.109303850000       0.203661560000       0.051373860000       1.000000000000
S11 S       0.211942900000      -0.037914960000      -0.069260380000       1.000000000000
S12 S       0.047422900000       0.285246300000      -0.071101810000       1.000000000000
S13 S       0.289292010000       0.010884070000       0.001586110000       1.000000000000
S14 S      -0.036050840000       0.236470010000      -0.001278000000       1.000000000000
S15 S       0.219511150000       0.086756920000      -0.121637960000       1.000000000000
S16 S       0.044398650000       0.160557530000      -0.123090000000       1.000000000000
S17 S       0.139454260000       0.205037090000       0.202449340000       1.000000000000
S18 S       0.109303850000       0.045084690000       0.202976180000       1.000000000000
S19 S       0.211942900000       0.286661220000       0.323610420000       1.000000000000
S20 S       0.047422900000      -0.036500050000       0.325451850000       1.000000000000
S21 S       0.289292010000       0.237862170000       0.252763930000       1.000000000000
S22 S      -0.036050830000       0.012276240000       0.255628030000       1.000000000000
S23 S       0.219511150000       0.161989340000       0.375987990000       1.000000000000
S24 S       0.044398650000       0.088188710000       0.377440050000       1.000000000000
S25 S       0.858460900000       0.295641240000       0.301738390000       1.000000000000
S26 S       0.890392130000       0.455351650000       0.300665490000       1.000000000000
S27 S       0.791166080000       0.212094860000       0.180397060000       1.000000000000
S28 S       0.959296150000       0.533986880000       0.178352710000       1.000000000000
S29 S       0.710822740000       0.262901400000       0.250303340000       1.000000000000
S30 S       1.038710380000       0.486015920000       0.249126760000       1.000000000000
S31 S       0.787599230000       0.335751570000       0.127339880000       1.000000000000
S32 S       0.963552340000       0.408226400000       0.127036690000       1.000000000000
S33 S       0.139454260000       0.543709160000       0.551900710000       1.000000000000
S34 S       0.109303850000       0.703661560000       0.551373860000       1.000000000000
S35 S       0.211942900000       0.462085040000       0.430739620000       1.000000000000
S36 S       0.047422900000       0.785246300000       0.428898190000       1.000000000000
S37 S       0.289292010000       0.510884070000       0.501586110000       1.000000000000
S38 S      -0.036050840000       0.736470010000       0.498722000000       1.000000000000
S39 S       0.219511150000       0.586756920000       0.378362040000       1.000000000000
S40 S       0.044398650000       0.660557530000       0.376910000000       1.000000000000
S41 S       0.858460910000       0.453105000000       0.452611640000       1.000000000000
S42 S       0.890392140000       0.293394590000       0.453684540000       1.000000000000
S43 S       0.791166090000       0.536651380000       0.573952980000       1.000000000000
S44 S       0.959296150000       0.214759360000       0.575997330000       1.000000000000
S45 S       0.710822750000       0.485844830000       0.504046710000       1.000000000000
S46 S       1.038710380000       0.262730320000       0.505223280000       1.000000000000
S47 S       0.787599230000       0.412994670000       0.627010160000       1.000000000000
S48 S       0.963552330000       0.340519840000       0.627313350000       1.000000000000
S49 S       0.139454260000       0.705037090000       0.702449340000       1.000000000000
S50 S       0.109303850000       0.545084690000       0.702976180000       1.000000000000
S51 S       0.211942900000       0.786661220000       0.823610420000       1.000000000000
S52 S       0.047422900000       0.463499950000       0.825451850000       1.000000000000
S53 S       0.289292010000       0.737862170000       0.752763930000       1.000000000000
S54 S      -0.036050830000       0.512276240000       0.755628030000       1.000000000000
S55 S       0.219511150000       0.661989340000       0.875987990000       1.000000000000
S56 S       0.044398650000       0.588188710000       0.877440050000       1.000000000000
S57 S       0.858460900000       0.795641240000       0.801738390000       1.000000000000
S58 S       0.890392130000       0.955351650000       0.800665490000       1.000000000000
S59 S       0.791166080000       0.712094860000       0.680397060000       1.000000000000
S60 S       0.959296150000       1.033986880000       0.678352710000       1.000000000000
S61 S       0.710822740000       0.762901400000       0.750303340000       1.000000000000
S62 S       1.038710380000       0.986015920000       0.749126760000       1.000000000000
S63 S       0.787599230000       0.835751570000       0.627339880000       1.000000000000
S64 S       0.963552340000       0.908226400000       0.627036690000       1.000000000000
S65 S       0.390391520000       0.955351950000       0.300665460000       1.000000000000
S66 S       0.358460190000       0.795641550000       0.301738300000       1.000000000000
S67 S       0.459296100000       1.033987260000       0.178352750000       1.000000000000
S68 S       0.291165850000       0.712095310000       0.180396900000       1.000000000000
S69 S       0.538710000000       0.986016200000       0.249126840000       1.000000000000
S70 S       0.210822240000       0.762901820000       0.250303130000       1.000000000000
S71 S       0.463552440000       0.908226830000       0.127036690000       1.000000000000
S72 S       0.287599280000       0.835752060000       0.127339740000       1.000000000000
S73 S       0.390391520000       0.293394300000       0.953684570000       1.000000000000
S74 S       0.358460180000       0.453104700000       0.952611730000       1.000000000000
S75 S       0.459296100000       0.214758980000       1.075997290000       1.000000000000
S76 S       0.291165840000       0.536650940000       1.073953140000       1.000000000000
S77 S       0.538710000000       0.262730050000       1.005223200000       1.000000000000
S78 S       0.210822240000       0.485844420000       1.004046910000       1.000000000000
S79 S       0.463552430000       0.340519420000       1.127313340000       1.000000000000
S80 S       0.287599280000       0.412994180000       1.127010300000       1.000000000000
S81 S       0.390391520000       0.455351950000       0.800665460000       1.000000000000
S82 S       0.358460190000       0.295641550000       0.801738300000       1.000000000000
S83 S       0.459296100000       0.533987260000       0.678352750000       1.000000000000
S84 S       0.291165850000       0.212095310000       0.680396900000       1.000000000000
S85 S       0.538710000000       0.486016200000       0.749126840000       1.000000000000
S86 S       0.210822240000       0.262901820000       0.750303130000       1.000000000000
S87 S       0.463552440000       0.408226830000       0.627036690000       1.000000000000
S88 S       0.287599280000       0.335752060000       0.627339740000       1.000000000000
S89 S       0.390391520000       0.793394300000       0.453684570000       1.000000000000
S90 S       0.358460180000       0.953104700000       0.452611730000       1.000000000000
S91 S       0.459296100000       0.714758980000       0.575997290000       1.000000000000
S92 S       0.291165840000       1.036650940000       0.573953140000       1.000000000000
S93 S       0.538710000000       0.762730050000       0.505223200000       1.000000000000
S94 S       0.210822240000       0.985844420000       0.504046910000       1.000000000000
S95 S       0.463552430000       0.840519420000       0.627313340000       1.000000000000
S96 S       0.287599280000       0.912994180000       0.627010300000       1.000000000000
S97 S       0.639454060000       0.043708840000       0.551900770000       1.000000000000
S98 S       0.609303700000       0.203661250000       0.551374080000       1.000000000000
S99 S       0.711942820000      -0.037914820000       0.430739620000       1.000000000000
S100 S       0.547422950000       0.285246490000       0.428898470000       1.000000000000
S101 S       0.789291850000       0.010883910000       0.501586180000       1.000000000000
S102 S       0.463949090000       0.236469940000       0.498722210000       1.000000000000
S103 S       0.719511180000       0.086757260000       0.378362170000       1.000000000000
S104 S       0.544398700000       0.160557930000       0.376910160000       1.000000000000
S105 S       0.639454070000       0.205037400000       0.702449260000       1.000000000000
S106 S       0.609303700000       0.045084990000       0.702975950000       1.000000000000
S107 S       0.711942810000       0.286661080000       0.823610410000       1.000000000000
S108 S       0.547422940000      -0.036500240000       0.825451570000       1.000000000000
S109 S       0.789291860000       0.237862340000       0.752763860000       1.000000000000
S110 S       0.463949100000       0.012276300000       0.755627820000       1.000000000000
S111 S       0.719511180000       0.161988980000       0.875987880000       1.000000000000
S112 S       0.544398700000       0.088188320000       0.877439890000       1.000000000000
S113 S       0.639454060000       0.543708840000       0.051900770000       1.000000000000
S114 S       0.609303700000       0.703661250000       0.051374080000       1.000000000000
S115 S       0.711942820000       0.462085180000      -0.069260380000       1.000000000000
S116 S       0.547422950000       0.785246490000      -0.071101530000       1.000000000000
S117 S       0.789291850000       0.510883910000       0.001586180000       1.000000000000
S118 S       0.463949090000       0.736469940000      -0.001277790000       1.000000000000
S119 S       0.719511180000       0.586757260000      -0.121637830000       1.000000000000
S120 S       0.544398700000       0.660557930000      -0.123089840000       1.000000000000
S121 S       0.639454070000       0.705037400000       0.202449260000       1.000000000000
S122 S       0.609303700000       0.545084990000       0.202975950000       1.000000000000
S123 S       0.711942810000       0.786661080000       0.323610410000       1.000000000000
S124 S       0.547422940000       0.463499760000       0.325451570000       1.000000000000
S125 S       0.789291860000       0.737862340000       0.252763860000       1.000000000000
S126 S       0.463949100000       0.512276300000       0.255627820000       1.000000000000
S127 S       0.719511180000       0.661988980000       0.375987880000       1.000000000000
S128 S       0.544398700000       0.588188320000       0.377439890000       1.000000000000
#END